\ Model birth-death-regulation-capture-efficiency
\ LP format - for model browsing. Use MPS format to capture full model detail.
Minimize
  k_reg
Subject To
 R0: k_deg_2 = 1
 B_lb_0,_0: p[0,0] >= 0.0910853571428571
 B_ub_0,_0: p[0,0] <= 0.1684
 B_lb_0,_1: p[0,1] >= 0.0886853571428572
 B_ub_0,_1: p[0,1] <= 0.1652
 B_lb_0,_2: p[0,2] >= 0.00748535714285715
 B_ub_0,_2: p[0,2] <= 0.0788
 B_lb_0,_3: p[0,3] >= -0.0417146428571428
 B_ub_0,_3: p[0,3] <= 0.0226
 B_lb_0,_4: p[0,4] >= -0.0535146428571428
 B_ub_0,_4: p[0,4] <= 0.0074
 B_lb_0,_5: p[0,5] >= -0.0569146428571428
 B_ub_0,_5: p[0,5] <= 1
 B_lb_1,_0: p[1,0] >= 0.0806853571428572
 B_ub_1,_0: p[1,0] <= 0.1574
 B_lb_1,_1: p[1,1] >= 0.0646853571428572
 B_ub_1,_1: p[1,1] <= 0.14
 B_lb_1,_2: p[1,2] >= -0.00131964285714285
 B_ub_1,_2: p[1,2] <= 0.0686
 B_lb_1,_3: p[1,3] >= -0.0437146428571428
 B_ub_1,_3: p[1,3] <= 0.0204
 B_lb_1,_4: p[1,4] >= -0.0549146428571428
 B_ub_1,_4: p[1,4] <= 0.0054
 B_lb_1,_5: p[1,5] >= -0.0569146428571428
 B_ub_1,_5: p[1,5] <= 1
 B_lb_2,_0: p[2,0] >= 0.00528535714285715
 B_ub_2,_0: p[2,0] <= 0.0762
 B_lb_2,_1: p[2,1] >= -0.00591464285714285
 B_ub_2,_1: p[2,1] <= 0.064
 B_lb_2,_2: p[2,2] >= -0.0369146428571428
 B_ub_2,_2: p[2,2] <= 0.0286
 B_lb_2,_3: p[2,3] >= -0.0527146428571428
 B_ub_2,_3: p[2,3] <= 0.0088
 B_lb_2,_4: p[2,4] >= -0.0569146428571428
 B_ub_2,_4: p[2,4] <= 1
 B_lb_2,_5: p[2,5] >= -0.0569146428571428
 B_ub_2,_5: p[2,5] <= 1
 B_lb_3,_0: p[3,0] >= -0.0351146428571428
 B_ub_3,_0: p[3,0] <= 0.0308
 B_lb_3,_1: p[3,1] >= -0.0411146428571428
 B_ub_3,_1: p[3,1] <= 0.0234
 B_lb_3,_2: p[3,2] >= -0.0531146428571428
 B_ub_3,_2: p[3,2] <= 0.008
 B_lb_3,_3: p[3,3] >= -0.0569146428571428
 B_ub_3,_3: p[3,3] <= 1
 B_lb_3,_4: p[3,4] >= -0.0569146428571428
 B_ub_3,_4: p[3,4] <= 1
 B_lb_3,_5: p[3,5] >= -0.0569146428571428
 B_ub_3,_5: p[3,5] <= 1
 B_lb_4,_0: p[4,0] >= -0.0525146428571428
 B_ub_4,_0: p[4,0] <= 0.009
 B_lb_4,_1: p[4,1] >= -0.0557146428571428
 B_ub_4,_1: p[4,1] <= 0.0042
 B_lb_4,_2: p[4,2] >= -0.0557146428571428
 B_ub_4,_2: p[4,2] <= 0.0038
 B_lb_4,_3: p[4,3] >= -0.0569146428571428
 B_ub_4,_3: p[4,3] <= 1
 B_lb_4,_4: p[4,4] >= -0.0569146428571428
 B_ub_4,_4: p[4,4] <= 1
 B_lb_4,_5: p[4,5] >= -0.0569146428571428
 B_ub_4,_5: p[4,5] <= 1
 B_lb_5,_0: p[5,0] >= -0.0569146428571428
 B_ub_5,_0: p[5,0] <= 1
 B_lb_5,_1: p[5,1] >= -0.0569146428571428
 B_ub_5,_1: p[5,1] <= 1
 B_lb_5,_2: p[5,2] >= -0.0569146428571428
 B_ub_5,_2: p[5,2] <= 1
 B_lb_5,_3: p[5,3] >= -0.0569146428571428
 B_ub_5,_3: p[5,3] <= 1
 B_lb_5,_4: p[5,4] >= -0.0569146428571428
 B_ub_5,_4: p[5,4] <= 1
 B_lb_5,_5: p[5,5] >= -0.0569146428571428
 B_ub_5,_5: p[5,5] <= 1
 B_lb_6,_0: p[6,0] >= -0.0569146428571428
 B_ub_6,_0: p[6,0] <= 1
 B_lb_6,_1: p[6,1] >= -0.0569146428571428
 B_ub_6,_1: p[6,1] <= 1
 B_lb_6,_2: p[6,2] >= -0.0569146428571428
 B_ub_6,_2: p[6,2] <= 1
 B_lb_6,_3: p[6,3] >= -0.0569146428571428
 B_ub_6,_3: p[6,3] <= 1
 B_lb_6,_4: p[6,4] >= -0.0569146428571428
 B_ub_6,_4: p[6,4] <= 1
 B_lb_6,_5: p[6,5] >= -0.0569146428571428
 B_ub_6,_5: p[6,5] <= 1
 B_marginal_lb_0: p1[0] >= 0.2651142857142857
 B_marginal_ub_0: p1[0] <= 0.4246
 B_marginal_lb_1: p1[1] >= 0.2151142857142858
 B_marginal_ub_1: p1[1] <= 0.3746
 B_marginal_lb_2: p1[2] >= 0.0165142857142857
 B_marginal_ub_2: p1[2] <= 0.1694
 B_marginal_lb_3: p1[3] >= -0.0846857142857143
 B_marginal_ub_3: p1[3] <= 0.0604
 B_marginal_lb_4: p1[4] >= -0.1228857142857143
 B_marginal_ub_4: p1[4] <= 0.016
 B_marginal_lb_5: p1[5] >= -0.1326857142857143
 B_marginal_ub_5: p1[5] <= 1
 B_marginal_lb_6: p1[6] >= -0.1326857142857143
 B_marginal_ub_6: p1[6] <= 1
 B_marginal_lb_0: p2[0] >= 0.2424
 B_marginal_ub_0: p2[0] <= 0.422
 B_marginal_lb_1: p2[1] >= 0.1996
 B_marginal_ub_1: p2[1] <= 0.379605
 B_marginal_lb_2: p2[2] >= 0.002
 B_marginal_ub_2: p2[2] <= 0.1762
 B_marginal_lb_3: p2[3] >= -0.1136
 B_marginal_ub_3: p2[3] <= 0.0508
 B_marginal_lb_4: p2[4] >= -0.1448
 B_marginal_ub_4: p2[4] <= 0.0142
 B_marginal_lb_5: p2[5] >= -0.152
 B_marginal_ub_5: p2[5] <= 0.004
 frechet_lb_0,_0: - p[0,0] + p1[0] + p2[0] <= 1
 frechet_ub_x1_0: p[0,0] - p1[0] <= 0
 frechet_ub_x2_0: p[0,0] - p2[0] <= 0
 frechet_lb_0,_1: - p[0,1] + p1[0] + p2[1] <= 1
 frechet_ub_x1_0: p[0,1] - p1[0] <= 0
 frechet_ub_x2_1: p[0,1] - p2[1] <= 0
 frechet_lb_0,_2: - p[0,2] + p1[0] + p2[2] <= 1
 frechet_ub_x1_0: p[0,2] - p1[0] <= 0
 frechet_ub_x2_2: p[0,2] - p2[2] <= 0
 frechet_lb_0,_3: - p[0,3] + p1[0] + p2[3] <= 1
 frechet_ub_x1_0: p[0,3] - p1[0] <= 0
 frechet_ub_x2_3: p[0,3] - p2[3] <= 0
 frechet_lb_0,_4: - p[0,4] + p1[0] + p2[4] <= 1
 frechet_ub_x1_0: p[0,4] - p1[0] <= 0
 frechet_ub_x2_4: p[0,4] - p2[4] <= 0
 frechet_lb_0,_5: - p[0,5] + p1[0] + p2[5] <= 1
 frechet_ub_x1_0: p[0,5] - p1[0] <= 0
 frechet_ub_x2_5: p[0,5] - p2[5] <= 0
 frechet_lb_1,_0: - p[1,0] + p1[1] + p2[0] <= 1
 frechet_ub_x1_1: p[1,0] - p1[1] <= 0
 frechet_ub_x2_0: p[1,0] - p2[0] <= 0
 frechet_lb_1,_1: - p[1,1] + p1[1] + p2[1] <= 1
 frechet_ub_x1_1: p[1,1] - p1[1] <= 0
 frechet_ub_x2_1: p[1,1] - p2[1] <= 0
 frechet_lb_1,_2: - p[1,2] + p1[1] + p2[2] <= 1
 frechet_ub_x1_1: p[1,2] - p1[1] <= 0
 frechet_ub_x2_2: p[1,2] - p2[2] <= 0
 frechet_lb_1,_3: - p[1,3] + p1[1] + p2[3] <= 1
 frechet_ub_x1_1: p[1,3] - p1[1] <= 0
 frechet_ub_x2_3: p[1,3] - p2[3] <= 0
 frechet_lb_1,_4: - p[1,4] + p1[1] + p2[4] <= 1
 frechet_ub_x1_1: p[1,4] - p1[1] <= 0
 frechet_ub_x2_4: p[1,4] - p2[4] <= 0
 frechet_lb_1,_5: - p[1,5] + p1[1] + p2[5] <= 1
 frechet_ub_x1_1: p[1,5] - p1[1] <= 0
 frechet_ub_x2_5: p[1,5] - p2[5] <= 0
 frechet_lb_2,_0: - p[2,0] + p1[2] + p2[0] <= 1
 frechet_ub_x1_2: p[2,0] - p1[2] <= 0
 frechet_ub_x2_0: p[2,0] - p2[0] <= 0
 frechet_lb_2,_1: - p[2,1] + p1[2] + p2[1] <= 1
 frechet_ub_x1_2: p[2,1] - p1[2] <= 0
 frechet_ub_x2_1: p[2,1] - p2[1] <= 0
 frechet_lb_2,_2: - p[2,2] + p1[2] + p2[2] <= 1
 frechet_ub_x1_2: p[2,2] - p1[2] <= 0
 frechet_ub_x2_2: p[2,2] - p2[2] <= 0
 frechet_lb_2,_3: - p[2,3] + p1[2] + p2[3] <= 1
 frechet_ub_x1_2: p[2,3] - p1[2] <= 0
 frechet_ub_x2_3: p[2,3] - p2[3] <= 0
 frechet_lb_2,_4: - p[2,4] + p1[2] + p2[4] <= 1
 frechet_ub_x1_2: p[2,4] - p1[2] <= 0
 frechet_ub_x2_4: p[2,4] - p2[4] <= 0
 frechet_lb_2,_5: - p[2,5] + p1[2] + p2[5] <= 1
 frechet_ub_x1_2: p[2,5] - p1[2] <= 0
 frechet_ub_x2_5: p[2,5] - p2[5] <= 0
 frechet_lb_3,_0: - p[3,0] + p1[3] + p2[0] <= 1
 frechet_ub_x1_3: p[3,0] - p1[3] <= 0
 frechet_ub_x2_0: p[3,0] - p2[0] <= 0
 frechet_lb_3,_1: - p[3,1] + p1[3] + p2[1] <= 1
 frechet_ub_x1_3: p[3,1] - p1[3] <= 0
 frechet_ub_x2_1: p[3,1] - p2[1] <= 0
 frechet_lb_3,_2: - p[3,2] + p1[3] + p2[2] <= 1
 frechet_ub_x1_3: p[3,2] - p1[3] <= 0
 frechet_ub_x2_2: p[3,2] - p2[2] <= 0
 frechet_lb_3,_3: - p[3,3] + p1[3] + p2[3] <= 1
 frechet_ub_x1_3: p[3,3] - p1[3] <= 0
 frechet_ub_x2_3: p[3,3] - p2[3] <= 0
 frechet_lb_3,_4: - p[3,4] + p1[3] + p2[4] <= 1
 frechet_ub_x1_3: p[3,4] - p1[3] <= 0
 frechet_ub_x2_4: p[3,4] - p2[4] <= 0
 frechet_lb_3,_5: - p[3,5] + p1[3] + p2[5] <= 1
 frechet_ub_x1_3: p[3,5] - p1[3] <= 0
 frechet_ub_x2_5: p[3,5] - p2[5] <= 0
 frechet_lb_4,_0: - p[4,0] + p1[4] + p2[0] <= 1
 frechet_ub_x1_4: p[4,0] - p1[4] <= 0
 frechet_ub_x2_0: p[4,0] - p2[0] <= 0
 frechet_lb_4,_1: - p[4,1] + p1[4] + p2[1] <= 1
 frechet_ub_x1_4: p[4,1] - p1[4] <= 0
 frechet_ub_x2_1: p[4,1] - p2[1] <= 0
 frechet_lb_4,_2: - p[4,2] + p1[4] + p2[2] <= 1
 frechet_ub_x1_4: p[4,2] - p1[4] <= 0
 frechet_ub_x2_2: p[4,2] - p2[2] <= 0
 frechet_lb_4,_3: - p[4,3] + p1[4] + p2[3] <= 1
 frechet_ub_x1_4: p[4,3] - p1[4] <= 0
 frechet_ub_x2_3: p[4,3] - p2[3] <= 0
 frechet_lb_4,_4: - p[4,4] + p1[4] + p2[4] <= 1
 frechet_ub_x1_4: p[4,4] - p1[4] <= 0
 frechet_ub_x2_4: p[4,4] - p2[4] <= 0
 frechet_lb_4,_5: - p[4,5] + p1[4] + p2[5] <= 1
 frechet_ub_x1_4: p[4,5] - p1[4] <= 0
 frechet_ub_x2_5: p[4,5] - p2[5] <= 0
 frechet_lb_5,_0: - p[5,0] + p1[5] + p2[0] <= 1
 frechet_ub_x1_5: p[5,0] - p1[5] <= 0
 frechet_ub_x2_0: p[5,0] - p2[0] <= 0
 frechet_lb_5,_1: - p[5,1] + p1[5] + p2[1] <= 1
 frechet_ub_x1_5: p[5,1] - p1[5] <= 0
 frechet_ub_x2_1: p[5,1] - p2[1] <= 0
 frechet_lb_5,_2: - p[5,2] + p1[5] + p2[2] <= 1
 frechet_ub_x1_5: p[5,2] - p1[5] <= 0
 frechet_ub_x2_2: p[5,2] - p2[2] <= 0
 frechet_lb_5,_3: - p[5,3] + p1[5] + p2[3] <= 1
 frechet_ub_x1_5: p[5,3] - p1[5] <= 0
 frechet_ub_x2_3: p[5,3] - p2[3] <= 0
 frechet_lb_5,_4: - p[5,4] + p1[5] + p2[4] <= 1
 frechet_ub_x1_5: p[5,4] - p1[5] <= 0
 frechet_ub_x2_4: p[5,4] - p2[4] <= 0
 frechet_lb_5,_5: - p[5,5] + p1[5] + p2[5] <= 1
 frechet_ub_x1_5: p[5,5] - p1[5] <= 0
 frechet_ub_x2_5: p[5,5] - p2[5] <= 0
 frechet_lb_6,_0: - p[6,0] + p1[6] + p2[0] <= 1
 frechet_ub_x1_6: p[6,0] - p1[6] <= 0
 frechet_ub_x2_0: p[6,0] - p2[0] <= 0
 frechet_lb_6,_1: - p[6,1] + p1[6] + p2[1] <= 1
 frechet_ub_x1_6: p[6,1] - p1[6] <= 0
 frechet_ub_x2_1: p[6,1] - p2[1] <= 0
 frechet_lb_6,_2: - p[6,2] + p1[6] + p2[2] <= 1
 frechet_ub_x1_6: p[6,2] - p1[6] <= 0
 frechet_ub_x2_2: p[6,2] - p2[2] <= 0
 frechet_lb_6,_3: - p[6,3] + p1[6] + p2[3] <= 1
 frechet_ub_x1_6: p[6,3] - p1[6] <= 0
 frechet_ub_x2_3: p[6,3] - p2[3] <= 0
 frechet_lb_6,_4: - p[6,4] + p1[6] + p2[4] <= 1
 frechet_ub_x1_6: p[6,4] - p1[6] <= 0
 frechet_ub_x2_4: p[6,4] - p2[4] <= 0
 frechet_lb_6,_5: - p[6,5] + p1[6] + p2[5] <= 1
 frechet_ub_x1_6: p[6,5] - p1[6] <= 0
 frechet_ub_x2_5: p[6,5] - p2[5] <= 0
 Distribution: p[0,0] + p[0,1] + p[0,2] + p[0,3] + p[0,4] + p[0,5] + p[1,0]
   + p[1,1] + p[1,2] + p[1,3] + p[1,4] + p[1,5] + p[2,0] + p[2,1] + p[2,2]
   + p[2,3] + p[2,4] + p[2,5] + p[3,0] + p[3,1] + p[3,2] + p[3,3] + p[3,4]
   + p[3,5] + p[4,0] + p[4,1] + p[4,2] + p[4,3] + p[4,4] + p[4,5] + p[5,0]
   + p[5,1] + p[5,2] + p[5,3] + p[5,4] + p[5,5] + p[6,0] + p[6,1] + p[6,2]
   + p[6,3] + p[6,4] + p[6,5] <= 1
 Distribution_x1: p1[0] + p1[1] + p1[2] + p1[3] + p1[4] + p1[5] + p1[6]
   <= 1
 Distribution_x2: p2[0] + p2[1] + p2[2] + p2[3] + p2[4] + p2[5] <= 1
 Equation_0,_0: [ - p[0,0] * k_tx_1 - p[0,0] * k_tx_2 + p[0,1] * k_deg_2
   + p[1,0] * k_deg_1 + p[1,1] * k_reg ] = 0
 Equation_0,_1: [ p[0,0] * k_tx_2 - p[0,1] * k_tx_1 - p[0,1] * k_tx_2
   - p[0,1] * k_deg_2 + 2 p[0,2] * k_deg_2 + p[1,1] * k_deg_1
   + 2 p[1,2] * k_reg ] = 0
 Equation_0,_2: [ p[0,1] * k_tx_2 - p[0,2] * k_tx_1 - p[0,2] * k_tx_2
   - 2 p[0,2] * k_deg_2 + 3 p[0,3] * k_deg_2 + p[1,2] * k_deg_1
   + 3 p[1,3] * k_reg ] = 0
 Equation_0,_3: [ p[0,2] * k_tx_2 - p[0,3] * k_tx_1 - p[0,3] * k_tx_2
   - 3 p[0,3] * k_deg_2 + 4 p[0,4] * k_deg_2 + p[1,3] * k_deg_1
   + 4 p[1,4] * k_reg ] = 0
 Equation_0,_4: [ p[0,3] * k_tx_2 - p[0,4] * k_tx_1 - p[0,4] * k_tx_2
   - 4 p[0,4] * k_deg_2 + 5 p[0,5] * k_deg_2 + p[1,4] * k_deg_1
   + 5 p[1,5] * k_reg ] = 0
 Equation_1,_0: [ p[0,0] * k_tx_1 - p[1,0] * k_tx_1 - p[1,0] * k_tx_2
   - p[1,0] * k_deg_1 + p[1,1] * k_deg_2 + 2 p[2,0] * k_deg_1
   + 2 p[2,1] * k_reg ] = 0
 Equation_1,_1: [ p[0,1] * k_tx_1 + p[1,0] * k_tx_2 - p[1,1] * k_tx_1
   - p[1,1] * k_tx_2 - p[1,1] * k_deg_1 - p[1,1] * k_deg_2 - p[1,1] * k_reg
   + 2 p[1,2] * k_deg_2 + 2 p[2,1] * k_deg_1 + 4 p[2,2] * k_reg ] = 0
 Equation_1,_2: [ p[0,2] * k_tx_1 + p[1,1] * k_tx_2 - p[1,2] * k_tx_1
   - p[1,2] * k_tx_2 - p[1,2] * k_deg_1 - 2 p[1,2] * k_deg_2
   - 2 p[1,2] * k_reg + 3 p[1,3] * k_deg_2 + 2 p[2,2] * k_deg_1
   + 6 p[2,3] * k_reg ] = 0
 Equation_1,_3: [ p[0,3] * k_tx_1 + p[1,2] * k_tx_2 - p[1,3] * k_tx_1
   - p[1,3] * k_tx_2 - p[1,3] * k_deg_1 - 3 p[1,3] * k_deg_2
   - 3 p[1,3] * k_reg + 4 p[1,4] * k_deg_2 + 2 p[2,3] * k_deg_1
   + 8 p[2,4] * k_reg ] = 0
 Equation_1,_4: [ p[0,4] * k_tx_1 + p[1,3] * k_tx_2 - p[1,4] * k_tx_1
   - p[1,4] * k_tx_2 - p[1,4] * k_deg_1 - 4 p[1,4] * k_deg_2
   - 4 p[1,4] * k_reg + 5 p[1,5] * k_deg_2 + 2 p[2,4] * k_deg_1
   + 10 p[2,5] * k_reg ] = 0
 Equation_2,_0: [ p[1,0] * k_tx_1 - p[2,0] * k_tx_1 - p[2,0] * k_tx_2
   - 2 p[2,0] * k_deg_1 + p[2,1] * k_deg_2 + 3 p[3,0] * k_deg_1
   + 3 p[3,1] * k_reg ] = 0
 Equation_2,_1: [ p[1,1] * k_tx_1 + p[2,0] * k_tx_2 - p[2,1] * k_tx_1
   - p[2,1] * k_tx_2 - 2 p[2,1] * k_deg_1 - p[2,1] * k_deg_2
   - 2 p[2,1] * k_reg + 2 p[2,2] * k_deg_2 + 3 p[3,1] * k_deg_1
   + 6 p[3,2] * k_reg ] = 0
 Equation_2,_2: [ p[1,2] * k_tx_1 + p[2,1] * k_tx_2 - p[2,2] * k_tx_1
   - p[2,2] * k_tx_2 - 2 p[2,2] * k_deg_1 - 2 p[2,2] * k_deg_2
   - 4 p[2,2] * k_reg + 3 p[2,3] * k_deg_2 + 3 p[3,2] * k_deg_1
   + 9 p[3,3] * k_reg ] = 0
 Equation_2,_3: [ p[1,3] * k_tx_1 + p[2,2] * k_tx_2 - p[2,3] * k_tx_1
   - p[2,3] * k_tx_2 - 2 p[2,3] * k_deg_1 - 3 p[2,3] * k_deg_2
   - 6 p[2,3] * k_reg + 4 p[2,4] * k_deg_2 + 3 p[3,3] * k_deg_1
   + 12 p[3,4] * k_reg ] = 0
 Equation_2,_4: [ p[1,4] * k_tx_1 + p[2,3] * k_tx_2 - p[2,4] * k_tx_1
   - p[2,4] * k_tx_2 - 2 p[2,4] * k_deg_1 - 4 p[2,4] * k_deg_2
   - 8 p[2,4] * k_reg + 5 p[2,5] * k_deg_2 + 3 p[3,4] * k_deg_1
   + 15 p[3,5] * k_reg ] = 0
 Equation_3,_0: [ p[2,0] * k_tx_1 - p[3,0] * k_tx_1 - p[3,0] * k_tx_2
   - 3 p[3,0] * k_deg_1 + p[3,1] * k_deg_2 + 4 p[4,0] * k_deg_1
   + 4 p[4,1] * k_reg ] = 0
 Equation_3,_1: [ p[2,1] * k_tx_1 + p[3,0] * k_tx_2 - p[3,1] * k_tx_1
   - p[3,1] * k_tx_2 - 3 p[3,1] * k_deg_1 - p[3,1] * k_deg_2
   - 3 p[3,1] * k_reg + 2 p[3,2] * k_deg_2 + 4 p[4,1] * k_deg_1
   + 8 p[4,2] * k_reg ] = 0
 Equation_3,_2: [ p[2,2] * k_tx_1 + p[3,1] * k_tx_2 - p[3,2] * k_tx_1
   - p[3,2] * k_tx_2 - 3 p[3,2] * k_deg_1 - 2 p[3,2] * k_deg_2
   - 6 p[3,2] * k_reg + 3 p[3,3] * k_deg_2 + 4 p[4,2] * k_deg_1
   + 12 p[4,3] * k_reg ] = 0
 Equation_3,_3: [ p[2,3] * k_tx_1 + p[3,2] * k_tx_2 - p[3,3] * k_tx_1
   - p[3,3] * k_tx_2 - 3 p[3,3] * k_deg_1 - 3 p[3,3] * k_deg_2
   - 9 p[3,3] * k_reg + 4 p[3,4] * k_deg_2 + 4 p[4,3] * k_deg_1
   + 16 p[4,4] * k_reg ] = 0
 Equation_3,_4: [ p[2,4] * k_tx_1 + p[3,3] * k_tx_2 - p[3,4] * k_tx_1
   - p[3,4] * k_tx_2 - 3 p[3,4] * k_deg_1 - 4 p[3,4] * k_deg_2
   - 12 p[3,4] * k_reg + 5 p[3,5] * k_deg_2 + 4 p[4,4] * k_deg_1
   + 20 p[4,5] * k_reg ] = 0
 Equation_4,_0: [ p[3,0] * k_tx_1 - p[4,0] * k_tx_1 - p[4,0] * k_tx_2
   - 4 p[4,0] * k_deg_1 + p[4,1] * k_deg_2 + 5 p[5,0] * k_deg_1
   + 5 p[5,1] * k_reg ] = 0
 Equation_4,_1: [ p[3,1] * k_tx_1 + p[4,0] * k_tx_2 - p[4,1] * k_tx_1
   - p[4,1] * k_tx_2 - 4 p[4,1] * k_deg_1 - p[4,1] * k_deg_2
   - 4 p[4,1] * k_reg + 2 p[4,2] * k_deg_2 + 5 p[5,1] * k_deg_1
   + 10 p[5,2] * k_reg ] = 0
 Equation_4,_2: [ p[3,2] * k_tx_1 + p[4,1] * k_tx_2 - p[4,2] * k_tx_1
   - p[4,2] * k_tx_2 - 4 p[4,2] * k_deg_1 - 2 p[4,2] * k_deg_2
   - 8 p[4,2] * k_reg + 3 p[4,3] * k_deg_2 + 5 p[5,2] * k_deg_1
   + 15 p[5,3] * k_reg ] = 0
 Equation_4,_3: [ p[3,3] * k_tx_1 + p[4,2] * k_tx_2 - p[4,3] * k_tx_1
   - p[4,3] * k_tx_2 - 4 p[4,3] * k_deg_1 - 3 p[4,3] * k_deg_2
   - 12 p[4,3] * k_reg + 4 p[4,4] * k_deg_2 + 5 p[5,3] * k_deg_1
   + 20 p[5,4] * k_reg ] = 0
 Equation_4,_4: [ p[3,4] * k_tx_1 + p[4,3] * k_tx_2 - p[4,4] * k_tx_1
   - p[4,4] * k_tx_2 - 4 p[4,4] * k_deg_1 - 4 p[4,4] * k_deg_2
   - 16 p[4,4] * k_reg + 5 p[4,5] * k_deg_2 + 5 p[5,4] * k_deg_1
   + 25 p[5,5] * k_reg ] = 0
 Equation_5,_0: [ p[4,0] * k_tx_1 - p[5,0] * k_tx_1 - p[5,0] * k_tx_2
   - 5 p[5,0] * k_deg_1 + p[5,1] * k_deg_2 + 6 p[6,0] * k_deg_1
   + 6 p[6,1] * k_reg ] = 0
 Equation_5,_1: [ p[4,1] * k_tx_1 + p[5,0] * k_tx_2 - p[5,1] * k_tx_1
   - p[5,1] * k_tx_2 - 5 p[5,1] * k_deg_1 - p[5,1] * k_deg_2
   - 5 p[5,1] * k_reg + 2 p[5,2] * k_deg_2 + 6 p[6,1] * k_deg_1
   + 12 p[6,2] * k_reg ] = 0
 Equation_5,_2: [ p[4,2] * k_tx_1 + p[5,1] * k_tx_2 - p[5,2] * k_tx_1
   - p[5,2] * k_tx_2 - 5 p[5,2] * k_deg_1 - 2 p[5,2] * k_deg_2
   - 10 p[5,2] * k_reg + 3 p[5,3] * k_deg_2 + 6 p[6,2] * k_deg_1
   + 18 p[6,3] * k_reg ] = 0
 Equation_5,_3: [ p[4,3] * k_tx_1 + p[5,2] * k_tx_2 - p[5,3] * k_tx_1
   - p[5,3] * k_tx_2 - 5 p[5,3] * k_deg_1 - 3 p[5,3] * k_deg_2
   - 15 p[5,3] * k_reg + 4 p[5,4] * k_deg_2 + 6 p[6,3] * k_deg_1
   + 24 p[6,4] * k_reg ] = 0
 Equation_5,_4: [ p[4,4] * k_tx_1 + p[5,3] * k_tx_2 - p[5,4] * k_tx_1
   - p[5,4] * k_tx_2 - 5 p[5,4] * k_deg_1 - 4 p[5,4] * k_deg_2
   - 20 p[5,4] * k_reg + 5 p[5,5] * k_deg_2 + 6 p[6,4] * k_deg_1
   + 30 p[6,5] * k_reg ] = 0
Bounds
 p[0,0] <= 1
 p[0,1] <= 1
 p[0,2] <= 1
 p[0,3] <= 1
 p[0,4] <= 1
 p[0,5] <= 1
 p[1,0] <= 1
 p[1,1] <= 1
 p[1,2] <= 1
 p[1,3] <= 1
 p[1,4] <= 1
 p[1,5] <= 1
 p[2,0] <= 1
 p[2,1] <= 1
 p[2,2] <= 1
 p[2,3] <= 1
 p[2,4] <= 1
 p[2,5] <= 1
 p[3,0] <= 1
 p[3,1] <= 1
 p[3,2] <= 1
 p[3,3] <= 1
 p[3,4] <= 1
 p[3,5] <= 1
 p[4,0] <= 1
 p[4,1] <= 1
 p[4,2] <= 1
 p[4,3] <= 1
 p[4,4] <= 1
 p[4,5] <= 1
 p[5,0] <= 1
 p[5,1] <= 1
 p[5,2] <= 1
 p[5,3] <= 1
 p[5,4] <= 1
 p[5,5] <= 1
 p[6,0] <= 1
 p[6,1] <= 1
 p[6,2] <= 1
 p[6,3] <= 1
 p[6,4] <= 1
 p[6,5] <= 1
 p1[0] <= 1
 p1[1] <= 1
 p1[2] <= 1
 p1[3] <= 1
 p1[4] <= 1
 p1[5] <= 1
 p1[6] <= 1
 p2[0] <= 1
 p2[1] <= 1
 p2[2] <= 1
 p2[3] <= 1
 p2[4] <= 1
 p2[5] <= 1
 k_tx_1 <= 10
 k_tx_2 <= 10
 k_deg_1 <= 10
 k_deg_2 <= 10
 k_reg <= 10
End
